
===== New CPLEX run =====
Instance: /home/yorig/tuner/mpils-tests/instances/miplib/easy/lotsize.mps
Config: /scratch/yorig/mpils-results-grid-ticks-10000/easy/16proc/seed-9/4_lotsize_seed-9_20260425_202405/expansion/config_param_CPXPARAM_MIP_Strategy_BBInterval_15_iter_1.prm
========================

Selected objective sense:  MINIMIZE
Selected objective  name:  R1921
Selected RHS        name:  B
Selected bound      name:  BOUND
Version identifier: 22.1.2.0 | 2024-11-26 | 0edbb82fd
CPXPARAM_Threads                                 8
CPXPARAM_Parallel                                1
CPXPARAM_MIP_Cuts_Cliques                        -1
CPXPARAM_MIP_Cuts_FlowCovers                     2
CPXPARAM_MIP_Cuts_Implied                        2
CPXPARAM_MIP_Cuts_GUBCovers                      -1
CPXPARAM_MIP_Limits_GomoryCand                   50
CPXPARAM_MIP_Cuts_Gomory                         1
CPXPARAM_MIP_Cuts_PathCut                        -1
CPXPARAM_MIP_Cuts_MIRCut                         2
CPXPARAM_MIP_Cuts_Disjunctive                    -1
CPXPARAM_Emphasis_MIP                            1
CPXPARAM_MIP_Strategy_BBInterval                 15
CPXPARAM_DetTimeLimit                            10000
Tried aggregator 1 time.
MIP Presolve eliminated 595 rows and 0 columns.
MIP Presolve added 1190 rows and 0 columns.
MIP Presolve modified 10 coefficients.
Reduced MIP has 2515 rows, 2985 columns, and 7755 nonzeros.
Reduced MIP has 1195 binaries, 0 generals, 0 SOSs, and 0 indicators.
Presolve time = 0.00 sec. (4.53 ticks)
Probing fixed 0 vars, tightened 5487 bounds.
Probing time = 0.01 sec. (18.38 ticks)
Tried aggregator 2 times.
Detecting symmetries...
MIP Presolve modified 1206 coefficients.
Aggregator did 10 substitutions.
Reduced MIP has 2505 rows, 2975 columns, and 7735 nonzeros.
Reduced MIP has 1195 binaries, 0 generals, 0 SOSs, and 0 indicators.
Presolve time = 0.00 sec. (6.66 ticks)
Probing fixed 0 vars, tightened 2401 bounds.
Probing time = 0.00 sec. (6.41 ticks)
Clique table members: 190.
MIP emphasis: integer feasibility.
MIP search method: dynamic search.
Parallel mode: deterministic, using up to 8 threads.
Root relaxation solution time = 0.01 sec. (9.71 ticks)

        Nodes                                         Cuts/
   Node  Left     Objective  IInf  Best Integer    Best Bound    ItCnt     Gap

      0     0   348385.3466   472                 348385.3466      882         
      0     0   572313.5958   462                   Cuts: 726     1889         
      0     0   831822.5913   565                   Cuts: 726     2717         
      0     0   945966.5491   640                   Cuts: 726     3332         
*     0+    0                       1.01740e+07   945966.5491            90.70%
*     0+    0                      7973370.0000   945966.5491            88.14%
Detecting symmetries...
      0     2   945966.5491   640  7973370.0000   945966.5491     3332   88.14%
Elapsed time = 0.33 sec. (495.68 ticks, tree = 0.02 MB, solutions = 2)
    100    70  1063812.9905   674  7973370.0000   946292.4723    11501   88.13%
    517   400  1099645.0451   514  7973370.0000   946292.4723    18492   88.13%
    847   737  1196861.5457   533  7973370.0000   946292.4723    24256   88.13%
   1429  1203  1524718.7381   280  7973370.0000   946292.4723    33245   88.13%

Performing restart 1

Repeating presolve.
Tried aggregator 1 time.
MIP Presolve modified 1211 coefficients.
Reduced MIP has 2505 rows, 2975 columns, and 7735 nonzeros.
Reduced MIP has 1195 binaries, 0 generals, 0 SOSs, and 0 indicators.
Presolve time = 0.00 sec. (3.84 ticks)
Tried aggregator 1 time.
MIP Presolve modified 1032 coefficients.
Reduced MIP has 2505 rows, 2975 columns, and 7735 nonzeros.
Reduced MIP has 1195 binaries, 0 generals, 0 SOSs, and 0 indicators.
Presolve time = 0.00 sec. (5.12 ticks)
Represolve time = 0.02 sec. (18.63 ticks)
*  1743+    0                      6644005.0000  1005488.4859            84.87%
   1743     0  1136884.5664   706  6644005.0000     Cuts: 726    45172   82.89%
   1743     0  1223882.5157   689  6644005.0000     Cuts: 726    45957   81.58%
   1743     0  1272111.1929   698  6644005.0000     Cuts: 726    46695   80.85%
   1743     2  1272111.1929   698  6644005.0000  1272111.1929    46695   80.85%
   1753    12  1312972.0693   633  6644005.0000  1272182.2601    47211   80.85%
   1783    42  1330315.6001   565  6644005.0000  1272182.2601    47966   80.85%
   1815     5  1306164.3867   673  6644005.0000  1272182.2601    46863   80.85%
   1822    75  1370264.3809   744  6644005.0000  1272331.7537    49981   80.85%
   1939   138  1390861.2709   753  6644005.0000  1309631.0375    75360   80.29%
Elapsed time = 3.95 sec. (5570.77 ticks, tree = 0.11 MB, solutions = 3)
*  2031+  176                      1872242.0000  1309879.9988            30.04%
   2493   483  1406262.9728   532  1872242.0000  1309879.9988   103336   30.04%
*  2825+  932                      1802516.0000  1309879.9988            27.33%
   3468  1146  1671747.5304   204  1802516.0000  1309879.9988   133431   27.33%
*  4197  2009      integral     0  1791212.0000  1309879.9988   160942   26.87%
*  4274  2172      integral     0  1683368.0000  1309879.9988   165537   22.19%
*  4283  1951      integral     0  1669356.0000  1309879.9988   168715   21.53%
*  4518+ 1821                      1591649.0000  1309879.9988            17.70%
*  4537+ 1821                      1570845.0000  1309879.9988            16.61%
   4731  1543  1399930.9722   717  1570845.0000  1309879.9988   193338   16.61%
   5535  2148  1423689.1561   689  1570845.0000  1309879.9988   227319   16.61%
*  5741+ 2131                      1518099.0000  1309879.9988            13.72%
*  5746+ 2130                      1513281.0000  1309879.9988            13.44%
*  5758+ 2130                      1510595.0000  1309879.9988            13.29%
*  5771+ 2130                      1508701.0000  1309879.9988            13.18%
*  5846+ 2247                      1508701.0000  1309879.9988            13.18%

Cover cuts applied:  26
Implied bound cuts applied:  10
Flow cuts applied:  816
Mixed integer rounding cuts applied:  1086
Multi commodity flow cuts applied:  19
Lift and project cuts applied:  6
Gomory fractional cuts applied:  2

Root node processing (before b&c):
  Real time             =    0.33 sec. (493.68 ticks)
Parallel b&c, 8 threads:
  Real time             =    7.34 sec. (9509.52 ticks)
  Sync time (average)   =    1.02 sec.
  Wait time (average)   =    0.00 sec.
                          ------------
Total (root+branch&cut) =    7.66 sec. (10003.21 ticks)
Gap: 13.18%
Upper bound: 1.5087e+06
Lower bound: 1.30988e+06
End of CPLEX run. Time: 7.66301 seconds

===== New CPLEX run =====
Instance: /home/yorig/tuner/mpils-tests/instances/miplib/easy/lotsize.mps
Config: /scratch/yorig/mpils-results-grid-ticks-10000/easy/16proc/seed-9/4_lotsize_seed-9_20260425_202405/expansion/config_param_CPXPARAM_MIP_Strategy_BBInterval_30_iter_1.prm
========================

Selected objective sense:  MINIMIZE
Selected objective  name:  R1921
Selected RHS        name:  B
Selected bound      name:  BOUND
Version identifier: 22.1.2.0 | 2024-11-26 | 0edbb82fd
CPXPARAM_Threads                                 8
CPXPARAM_Parallel                                1
CPXPARAM_MIP_Cuts_Cliques                        -1
CPXPARAM_MIP_Cuts_FlowCovers                     2
CPXPARAM_MIP_Cuts_Implied                        2
CPXPARAM_MIP_Cuts_GUBCovers                      -1
CPXPARAM_MIP_Limits_GomoryCand                   50
CPXPARAM_MIP_Cuts_Gomory                         1
CPXPARAM_MIP_Cuts_PathCut                        -1
CPXPARAM_MIP_Cuts_MIRCut                         2
CPXPARAM_MIP_Cuts_Disjunctive                    -1
CPXPARAM_Emphasis_MIP                            1
CPXPARAM_MIP_Strategy_BBInterval                 30
CPXPARAM_DetTimeLimit                            10000
Tried aggregator 1 time.
MIP Presolve eliminated 595 rows and 0 columns.
MIP Presolve added 1190 rows and 0 columns.
MIP Presolve modified 10 coefficients.
Reduced MIP has 2515 rows, 2985 columns, and 7755 nonzeros.
Reduced MIP has 1195 binaries, 0 generals, 0 SOSs, and 0 indicators.
Presolve time = 0.00 sec. (4.53 ticks)
Probing fixed 0 vars, tightened 5487 bounds.
Probing time = 0.01 sec. (18.38 ticks)
Tried aggregator 2 times.
Detecting symmetries...
MIP Presolve modified 1206 coefficients.
Aggregator did 10 substitutions.
Reduced MIP has 2505 rows, 2975 columns, and 7735 nonzeros.
Reduced MIP has 1195 binaries, 0 generals, 0 SOSs, and 0 indicators.
Presolve time = 0.00 sec. (6.66 ticks)
Probing fixed 0 vars, tightened 2401 bounds.
Probing time = 0.00 sec. (6.41 ticks)
Clique table members: 190.
MIP emphasis: integer feasibility.
MIP search method: dynamic search.
Parallel mode: deterministic, using up to 8 threads.
Root relaxation solution time = 0.01 sec. (9.71 ticks)

        Nodes                                         Cuts/
   Node  Left     Objective  IInf  Best Integer    Best Bound    ItCnt     Gap

      0     0   348385.3466   472                 348385.3466      882         
      0     0   572313.5958   462                   Cuts: 726     1889         
      0     0   831822.5913   565                   Cuts: 726     2717         
      0     0   945966.5491   640                   Cuts: 726     3332         
*     0+    0                       1.01740e+07   945966.5491            90.70%
*     0+    0                      7973370.0000   945966.5491            88.14%
Detecting symmetries...
      0     2   945966.5491   640  7973370.0000   945966.5491     3332   88.14%
Elapsed time = 0.33 sec. (495.68 ticks, tree = 0.02 MB, solutions = 2)
    100    70  1063812.9905   674  7973370.0000   946292.4723    11501   88.13%
    517   400  1099645.0451   514  7973370.0000   946292.4723    18492   88.13%
    847   737  1196861.5457   533  7973370.0000   946292.4723    24256   88.13%
   1429  1203  1524718.7381   280  7973370.0000   946292.4723    33245   88.13%

Performing restart 1

Repeating presolve.
Tried aggregator 1 time.
MIP Presolve modified 1211 coefficients.
Reduced MIP has 2505 rows, 2975 columns, and 7735 nonzeros.
Reduced MIP has 1195 binaries, 0 generals, 0 SOSs, and 0 indicators.
Presolve time = 0.00 sec. (3.84 ticks)
Tried aggregator 1 time.
MIP Presolve modified 1032 coefficients.
Reduced MIP has 2505 rows, 2975 columns, and 7735 nonzeros.
Reduced MIP has 1195 binaries, 0 generals, 0 SOSs, and 0 indicators.
Presolve time = 0.00 sec. (5.12 ticks)
Represolve time = 0.02 sec. (18.63 ticks)
*  1743+    0                      6644005.0000  1005488.4859            84.87%
   1743     0  1136884.5664   706  6644005.0000     Cuts: 726    45172   82.89%
   1743     0  1223882.5157   689  6644005.0000     Cuts: 726    45957   81.58%
   1743     0  1272111.1929   698  6644005.0000     Cuts: 726    46695   80.85%
   1743     2  1272111.1929   698  6644005.0000  1272111.1929    46695   80.85%
   1753    12  1312972.0693   633  6644005.0000  1272182.2601    47211   80.85%
   1783    42  1330315.6001   565  6644005.0000  1272182.2601    47966   80.85%
   1815     5  1306164.3867   673  6644005.0000  1272182.2601    46863   80.85%
   1822    75  1370264.3809   744  6644005.0000  1272331.7537    49981   80.85%
   1939   138  1390861.2709   753  6644005.0000  1309631.0375    75360   80.29%
Elapsed time = 3.96 sec. (5570.77 ticks, tree = 0.11 MB, solutions = 3)
*  2031+  176                      1872242.0000  1309879.9988            30.04%
   2493   483  1406262.9728   532  1872242.0000  1309879.9988   103336   30.04%
*  2825+  932                      1802516.0000  1309879.9988            27.33%
   3468  1146  1671747.5304   204  1802516.0000  1309879.9988   133431   27.33%
*  4197  2009      integral     0  1791212.0000  1309879.9988   160942   26.87%
*  4274  2172      integral     0  1683368.0000  1309879.9988   165537   22.19%
*  4283  1937      integral     0  1669356.0000  1309879.9988   168715   21.53%
*  4518+ 1821                      1591649.0000  1309879.9988            17.70%
*  4537+ 1821                      1570845.0000  1309879.9988            16.61%
   4731  1543  1399930.9722   717  1570845.0000  1309879.9988   193338   16.61%
   5535  2148  1423689.1561   689  1570845.0000  1309879.9988   227319   16.61%
*  5741+ 2129                      1518099.0000  1309879.9988            13.72%
*  5746+ 2129                      1513281.0000  1309879.9988            13.44%
*  5758+ 2129                      1510595.0000  1309879.9988            13.29%
*  5771+ 2129                      1508701.0000  1309879.9988            13.18%
*  5846+ 2247                      1508701.0000  1309879.9988            13.18%

Cover cuts applied:  26
Implied bound cuts applied:  10
Flow cuts applied:  816
Mixed integer rounding cuts applied:  1086
Multi commodity flow cuts applied:  19
Lift and project cuts applied:  6
Gomory fractional cuts applied:  2

Root node processing (before b&c):
  Real time             =    0.33 sec. (493.68 ticks)
Parallel b&c, 8 threads:
  Real time             =    7.35 sec. (9509.52 ticks)
  Sync time (average)   =    1.03 sec.
  Wait time (average)   =    0.00 sec.
                          ------------
Total (root+branch&cut) =    7.68 sec. (10003.21 ticks)
Gap: 13.18%
Upper bound: 1.5087e+06
Lower bound: 1.30988e+06
End of CPLEX run. Time: 7.67926 seconds

===== New CPLEX run =====
Instance: /home/yorig/tuner/mpils-tests/instances/miplib/easy/lotsize.mps
Config: /scratch/yorig/mpils-results-grid-ticks-10000/easy/16proc/seed-9/4_lotsize_seed-9_20260425_202405/expansion/config_param_CPXPARAM_MIP_Strategy_Branch_-1_iter_1.prm
========================

Selected objective sense:  MINIMIZE
Selected objective  name:  R1921
Selected RHS        name:  B
Selected bound      name:  BOUND
Version identifier: 22.1.2.0 | 2024-11-26 | 0edbb82fd
CPXPARAM_Threads                                 8
CPXPARAM_Parallel                                1
CPXPARAM_MIP_Strategy_Branch                     -1
CPXPARAM_MIP_Cuts_Cliques                        -1
CPXPARAM_MIP_Cuts_FlowCovers                     2
CPXPARAM_MIP_Cuts_Implied                        2
CPXPARAM_MIP_Cuts_GUBCovers                      -1
CPXPARAM_MIP_Limits_GomoryCand                   50
CPXPARAM_MIP_Cuts_Gomory                         1
CPXPARAM_MIP_Cuts_PathCut                        -1
CPXPARAM_MIP_Cuts_MIRCut                         2
CPXPARAM_MIP_Cuts_Disjunctive                    -1
CPXPARAM_Emphasis_MIP                            1
CPXPARAM_DetTimeLimit                            10000
Tried aggregator 1 time.
MIP Presolve eliminated 595 rows and 0 columns.
MIP Presolve added 1190 rows and 0 columns.
MIP Presolve modified 10 coefficients.
Reduced MIP has 2515 rows, 2985 columns, and 7755 nonzeros.
Reduced MIP has 1195 binaries, 0 generals, 0 SOSs, and 0 indicators.
Presolve time = 0.00 sec. (4.53 ticks)
Probing fixed 0 vars, tightened 5487 bounds.
Probing time = 0.01 sec. (18.38 ticks)
Tried aggregator 2 times.
Detecting symmetries...
MIP Presolve modified 1206 coefficients.
Aggregator did 10 substitutions.
Reduced MIP has 2505 rows, 2975 columns, and 7735 nonzeros.
Reduced MIP has 1195 binaries, 0 generals, 0 SOSs, and 0 indicators.
Presolve time = 0.00 sec. (6.66 ticks)
Probing fixed 0 vars, tightened 2401 bounds.
Probing time = 0.00 sec. (6.41 ticks)
Clique table members: 190.
MIP emphasis: integer feasibility.
MIP search method: dynamic search.
Parallel mode: deterministic, using up to 8 threads.
Root relaxation solution time = 0.01 sec. (9.71 ticks)

        Nodes                                         Cuts/
   Node  Left     Objective  IInf  Best Integer    Best Bound    ItCnt     Gap

      0     0   348385.3466   472                 348385.3466      882         
      0     0   572313.5958   462                   Cuts: 726     1889         
      0     0   831822.5913   565                   Cuts: 726     2717         
      0     0   945966.5491   640                   Cuts: 726     3332         
*     0+    0                       1.01740e+07   945966.5491            90.70%
*     0+    0                      7973370.0000   945966.5491            88.14%
Detecting symmetries...
      0     2   945966.5491   640  7973370.0000   945966.5491     3332   88.14%
Elapsed time = 0.33 sec. (495.68 ticks, tree = 0.02 MB, solutions = 2)
    396   310  1099868.9563   625  7973370.0000   946292.4723    11321   88.13%
   1394  1255  1690014.7435   517  7973370.0000   946292.4723    19435   88.13%

Performing restart 1

Repeating presolve.
Tried aggregator 1 time.
MIP Presolve modified 1211 coefficients.
Reduced MIP has 2505 rows, 2975 columns, and 7735 nonzeros.
Reduced MIP has 1195 binaries, 0 generals, 0 SOSs, and 0 indicators.
Presolve time = 0.00 sec. (3.85 ticks)
Tried aggregator 1 time.
MIP Presolve modified 1028 coefficients.
Reduced MIP has 2505 rows, 2975 columns, and 7735 nonzeros.
Reduced MIP has 1195 binaries, 0 generals, 0 SOSs, and 0 indicators.
Presolve time = 0.00 sec. (5.12 ticks)
Represolve time = 0.02 sec. (18.36 ticks)
*  1856+    0                      6644005.0000  1007297.1331            84.84%
   1856     0  1140016.9715   662  6644005.0000     Cuts: 726    28037   82.84%
   1856     0  1212797.5868   696  6644005.0000     Cuts: 726    28789   81.75%
   1856     0  1256210.6704   705  6644005.0000     Cuts: 726    29557   81.09%
   1856     2  1256210.6704   705  6644005.0000  1256210.6704    29557   81.09%
   1876    22  1273401.1639   650  6644005.0000  1256399.0195    30318   81.09%
   1906    52  1315005.0259   650  6644005.0000  1256399.0195    30797   81.09%
   1953    99  1676878.0230   590  6644005.0000  1256399.0195    31382   81.09%
   1978     4  1258824.9482   682  6644005.0000  1256399.0195    29766   81.09%
   1995   140  1850235.2091   580  6644005.0000  1258038.6075    35446   81.07%
   2033   162  1346601.5187   747  6644005.0000  1258038.6075    44858   81.07%
   2653   569  1432837.1691   622  6644005.0000  1258038.6075    68621   81.07%
Elapsed time = 4.04 sec. (5478.43 ticks, tree = 1.10 MB, solutions = 3)
*  3758  1496      integral     0  3678762.0000  1258038.6075    97613   65.80%
   3894  1576  1551317.1760   473  3678762.0000  1258038.6075   102564   65.80%
*  5527+ 3266                      2457554.0000  1258038.6075            48.81%
*  5596+ 3111                      2454344.0000  1258038.6075            48.74%
*  5920+ 3617                      2415558.0000  1258038.6075            47.92%
*  5929  3593      integral     0  2384178.0000  1258038.6075   154200   47.23%
   6209  3697  2334819.2720   100  2384178.0000  1258038.6075   156796   47.23%
*  6525+ 4045                      2075394.0000  1258825.5986            39.35%
*  6529+ 4045                      2063476.0000  1258825.5986            38.99%
   6797  3656  1685503.1612   464  2063476.0000  1258825.5986   196302   38.99%
   8249  4920  1774370.8071   428  2063476.0000  1258825.5986   238344   38.99%

Cover cuts applied:  27
Implied bound cuts applied:  16
Flow cuts applied:  845
Mixed integer rounding cuts applied:  1175
Multi commodity flow cuts applied:  25
Lift and project cuts applied:  10
Gomory fractional cuts applied:  2

Root node processing (before b&c):
  Real time             =    0.33 sec. (493.45 ticks)
Parallel b&c, 8 threads:
  Real time             =    7.26 sec. (9508.76 ticks)
  Sync time (average)   =    0.77 sec.
  Wait time (average)   =    0.00 sec.
                          ------------
Total (root+branch&cut) =    7.59 sec. (10002.20 ticks)
Gap: 38.99%
Upper bound: 2.06348e+06
Lower bound: 1.25883e+06
End of CPLEX run. Time: 7.59378 seconds
